p cnf 20  28
-3 14 1 0
-10 -17 -7 0
-19 -4 -1 0
4 12 -10 0
-18 4 -17 0
-20 -15 16 0
14 7 -1 0
12 -6 -17 0
-10 -16 6 0
9 15 -17 0
4 -6 -11 0
9 -8 3 0
-4 -6 -16 0
-5 19 -4 0
14 17 1 0
9 -18 -12 0
-16 17 -8 0
-1 11 16 0
7 10 9 0
4 -2 11 0
-17 -20 -3 0
-4 -11 -5 0
-11 -7 20 0
-5 2 -18 0
16 5 -3 0
14 7 -17 0
8 19 -1 0
13 16 -12 0